\ Model _copy
\ LP format - for model browsing. Use MPS format to capture full model detail.
Minimize
 
Subject To
 dist_constraint_Node(1)_Node(4): dist_Node(1)_Node(4) = 10.00000001
 xfc_constraint_Node(1)_Node(4): - 10.00000002 is_xfc[4]
   - dist_Node(1)_Node(4) + xfc_Node(1)_Node(4) = 0
Bounds
 dist_Node(1)_Node(4) free
Binaries
 is_xfc[4] xfc_Node(1)_Node(4)
End
